% 3x3 Kakuro

n = 3;

% 1 = Celdas validas (numeros)
% 0 = muro o pista
validCell = array2d(1..3, 1..3, [
  0, 0, 0,
  0, 1, 1,
  0, 1, 1
]);

% Suma horizontal pistas
hsum = array2d(1..3, 1..3, [
  0, 0, 0,
  5, 0, 0,
  10, 0, 0
]);

% Suma vertical pistas
vsum = array2d(1..3, 1..3, [
  0, 10, 5,
  0, 0, 0,
  0, 0, 0

]);